p wcnf 109 218 219 
1 84 41 0 
1 -53 20 0 
1 -102 73 0 
1 8 71 0 
1 -65 -67 0 
1 -2 77 0 
1 -57 41 0 
1 73 -101 0 
1 -48 85 0 
1 -25 -78 0 
1 -68 -6 0 
1 -51 -29 0 
1 -78 67 0 
1 92 44 0 
1 68 84 0 
1 -42 33 0 
1 80 83 0 
1 3 76 0 
1 54 5 0 
1 -28 36 0 
1 -29 97 0 
1 -69 49 0 
1 40 -82 0 
1 -60 55 0 
1 106 83 0 
1 71 -58 0 
1 -82 -59 0 
1 81 -90 0 
1 76 -63 0 
1 52 -93 0 
1 31 -102 0 
1 32 -12 0 
1 -41 -50 0 
1 109 103 0 
1 19 -92 0 
1 -65 96 0 
1 30 -38 0 
1 -7 -35 0 
1 -54 61 0 
1 -62 67 0 
1 22 -27 0 
1 43 -73 0 
1 -25 95 0 
1 87 -67 0 
1 -73 95 0 
1 71 -34 0 
1 97 66 0 
1 92 -82 0 
1 -7 54 0 
1 5 42 0 
1 31 81 0 
1 28 -39 0 
1 61 101 0 
1 82 41 0 
1 -60 -50 0 
1 -49 -74 0 
1 -101 -73 0 
1 21 -97 0 
1 2 40 0 
1 -80 -61 0 
1 6 77 0 
1 18 -84 0 
1 51 46 0 
1 46 -91 0 
1 -75 54 0 
1 37 -33 0 
1 -95 -6 0 
1 -6 -32 0 
1 -98 -78 0 
1 -34 53 0 
1 -88 -72 0 
1 32 -71 0 
1 -74 25 0 
1 43 56 0 
1 60 -108 0 
1 -12 -42 0 
1 40 108 0 
1 94 108 0 
1 11 -104 0 
1 -71 43 0 
1 21 -109 0 
1 61 94 0 
1 3 1 0 
1 -98 10 0 
1 1 36 0 
1 97 -41 0 
1 -61 -68 0 
1 -18 31 0 
1 103 59 0 
1 -47 42 0 
1 56 -3 0 
1 102 -101 0 
1 -2 6 0 
1 -95 -9 0 
1 -24 -46 0 
1 -43 98 0 
1 50 -75 0 
1 36 -55 0 
1 42 -34 0 
1 94 47 0 
1 -47 83 0 
1 100 -42 0 
1 25 9 0 
1 -52 13 0 
1 -103 -12 0 
1 -6 43 0 
1 -47 -73 0 
1 -17 33 0 
1 -18 47 0 
1 88 -85 0 
1 83 -76 0 
1 58 80 0 
1 -84 108 0 
1 25 50 0 
1 42 -68 0 
1 82 -103 0 
1 78 -79 0 
1 57 -96 0 
1 97 85 0 
1 87 20 0 
1 -28 107 0 
1 -54 5 0 
1 106 -14 0 
1 15 18 0 
1 -2 -54 0 
1 93 -1 0 
1 80 10 0 
1 15 -49 0 
1 -16 -87 0 
1 -91 16 0 
1 -91 22 0 
1 -92 63 0 
1 23 15 0 
1 36 37 0 
1 -91 -75 0 
1 106 81 0 
1 -58 -96 0 
1 14 108 0 
1 -20 10 0 
1 -42 23 0 
1 95 96 0 
1 -14 -102 0 
1 -103 -106 0 
1 2 28 0 
1 40 -51 0 
1 -41 -52 0 
1 -2 -7 0 
1 -27 43 0 
1 -74 104 0 
1 62 -102 0 
1 -24 -22 0 
1 65 83 0 
1 -6 -109 0 
1 16 10 0 
1 88 35 0 
1 -101 4 0 
1 107 -26 0 
1 73 14 0 
1 10 60 0 
1 78 -93 0 
1 62 96 0 
1 -99 -68 0 
1 25 109 0 
1 80 -11 0 
1 -79 7 0 
1 -96 79 0 
1 99 -91 0 
1 -101 83 0 
1 -51 -12 0 
1 -97 -81 0 
1 82 -67 0 
1 34 21 0 
1 108 98 0 
1 -66 92 0 
1 55 -35 0 
1 -73 77 0 
1 62 11 0 
1 -60 97 0 
1 -41 26 0 
1 85 77 0 
1 -101 5 0 
1 55 60 0 
1 -38 -96 0 
1 102 -20 0 
1 93 -61 0 
1 -52 58 0 
1 -16 10 0 
1 -30 34 0 
1 -71 37 0 
1 77 -103 0 
1 -58 -11 0 
1 98 -31 0 
1 99 23 0 
1 -68 -4 0 
1 -60 90 0 
1 88 -7 0 
1 -48 -5 0 
1 107 -51 0 
1 54 77 0 
1 16 35 0 
1 -103 -45 0 
1 -108 10 0 
1 -79 42 0 
1 18 -2 0 
1 32 -63 0 
1 61 -103 0 
1 52 -81 0 
1 42 47 0 
1 73 102 0 
1 -88 -80 0 
1 106 -32 0 
1 102 -12 0 
1 15 87 0 
1 -92 53 0 
1 -104 -101 0 
1 -56 -70 0 
1 -42 -105 0 
1 6 -98 0 
